
Gurobi 11.0.3 (linux64) logging started Mon Aug 25 13:22:27 2025

Set parameter LogFile to value "/home/yihong/Coding/OR_SUC/SUC_epstheta_results_bigM100000_thread4/case24_ieee_rts_theta0.1_epsilon0.1_gurobi_seed60000_num_gen100_N_WDR50_load_scaling_factor1_proposed_eps_T3quadra_cost_bc1.03.txt"
Set parameter TimeLimit to value 3600
Gurobi Optimizer version 11.0.3 build v11.0.3rc0 (linux64 - "Ubuntu 20.04.6 LTS")

CPU model: AMD EPYC 7532 32-Core Processor, instruction set [SSE2|AVX|AVX2]
Thread count: 64 physical cores, 128 logical processors, using up to 4 threads

Academic license 2399124 - for non-commercial use only - registered to yi___@ed.ac.uk
Optimize a model with 6709 rows, 3771 columns and 162814 nonzeros
Model fingerprint: 0x553291a8
Model has 300 quadratic constraints
Variable types: 3471 continuous, 300 integer (300 binary)
Coefficient statistics:
  Matrix range     [3e-04, 3e+03]
  QMatrix range    [2e-03, 8e-03]
  QLMatrix range   [1e+00, 6e+01]
  Objective range  [1e+00, 1e+00]
  Bounds range     [1e+00, 1e+00]
  RHS range        [1e+00, 9e+03]
Presolve removed 5620 rows and 1751 columns
Presolve time: 0.04s
Presolved: 1089 rows, 2020 columns, 6574 nonzeros
Presolved model has 300 quadratic constraint(s)
Variable types: 1720 continuous, 300 integer (300 binary)

Root relaxation: objective 3.532149e+03, 815 iterations, 0.01 seconds (0.01 work units)

    Nodes    |    Current Node    |     Objective Bounds      |     Work
 Expl Unexpl |  Obj  Depth IntInf | Incumbent    BestBd   Gap | It/Node Time

     0     0 3532.14870    0    3          - 3532.14870      -     -    0s
H    0     0                    107770.73397 3532.14870  96.7%     -    0s
     0     0 57191.7357    0    3 107770.734 57191.7357  46.9%     -    0s
     0     0 95123.4599    0    3 107770.734 95123.4599  11.7%     -    0s
     0     0 95132.0886    0    3 107770.734 95132.0886  11.7%     -    0s
     0     0 95134.9323    0    3 107770.734 95134.9323  11.7%     -    0s
     0     0 95135.1218    0    3 107770.734 95135.1218  11.7%     -    0s
     0     2 95135.1218    0    3 107770.734 95135.1218  11.7%     -    0s
H   30    29                    95149.903994 95137.9472  0.01%  12.7    0s
*   30    29               8    95149.903994 95137.9472  0.01%  13.0    0s

Cutting planes:
  Implied bound: 6

Explored 31 nodes (2282 simplex iterations) in 0.43 seconds (0.35 work units)
Thread count was 4 (of 128 available processors)

Solution count 3: 95149.9 95149.9 107771 

Optimal solution found (tolerance 1.00e-03)
Warning: max constraint violation (1.5337e-08) exceeds tolerance
Best objective 9.514990399384e+04, best bound 9.513794723035e+04, gap 0.0126%

Gurobi 11.0.3 (linux64) logging started Mon Aug 25 13:22:28 2025

Set parameter LogFile to value "/home/yihong/Coding/OR_SUC/SUC_epstheta_results_bigM100000_thread4/case24_ieee_rts_theta0.1_epsilon0.1_gurobi_seed60000_num_gen100_N_WDR50_load_scaling_factor1_proposed_eps_T3quadra_cost_bc1.03.txt"
Set parameter TimeLimit to value 3600
Gurobi Optimizer version 11.0.3 build v11.0.3rc0 (linux64 - "Ubuntu 20.04.6 LTS")

CPU model: AMD EPYC 7532 32-Core Processor, instruction set [SSE2|AVX|AVX2]
Thread count: 64 physical cores, 128 logical processors, using up to 4 threads

Academic license 2399124 - for non-commercial use only - registered to yi___@ed.ac.uk
Optimize a model with 6709 rows, 3772 columns and 163693 nonzeros
Model fingerprint: 0xa2cdfa53
Model has 301 quadratic constraints
Variable types: 3472 continuous, 300 integer (300 binary)
Coefficient statistics:
  Matrix range     [3e-04, 3e+03]
  QMatrix range    [2e-03, 5e+01]
  QLMatrix range   [1e+00, 6e+01]
  Objective range  [1e+00, 1e+00]
  Bounds range     [1e-01, 1e+00]
  RHS range        [1e+00, 1e+05]
  QRHS range       [5e+00, 5e+00]
Presolve removed 5209 rows and 1550 columns
Presolve time: 0.05s
Presolved: 1802 rows, 2522 columns, 9825 nonzeros
Presolved model has 300 quadratic constraint(s)
Presolved model has 1 bilinear constraint(s)

Solving non-convex MIQCP

Variable types: 2218 continuous, 304 integer (304 binary)

Root relaxation: objective 1.502787e-03, 2658 iterations, 0.05 seconds (0.06 work units)

    Nodes    |    Current Node    |     Objective Bounds      |     Work
 Expl Unexpl |  Obj  Depth IntInf | Incumbent    BestBd   Gap | It/Node Time

     0     0    0.00150    0    4          -    0.00150      -     -    0s
     0     0    0.00151    0    7          -    0.00151      -     -    0s
     0     0    0.00151    0    7          -    0.00151      -     -    0s
     0     0    0.00208    0    7          -    0.00208      -     -    0s
     0     0    0.00208    0    7          -    0.00208      -     -    0s
     0     0    0.00208    0    7          -    0.00208      -     -    0s
     0     0    0.00264    0    7          -    0.00264      -     -    0s
H    0     0                       0.0199103    0.00264  86.8%     -    0s
     0     2    0.01955    0    7    0.01991    0.01955  1.80%     -    0s
H   80     3                       0.0198138    0.01981  0.01%   8.1    0s
*   80     3               8       0.0198138    0.01981  0.01%   8.4    0s

Cutting planes:
  Gomory: 3
  Implied bound: 7
  RLT: 5

Explored 82 nodes (3603 simplex iterations) in 0.89 seconds (0.75 work units)
Thread count was 4 (of 128 available processors)

Solution count 2: 0.0198138 0.0199103 

Optimal solution found (tolerance 1.00e-03)
Best objective 1.981383537991e-02, best bound 1.981132814220e-02, gap 0.0127%
